22 3
3 3 5
0 0 0 0 20 2 3 4 5 6 7 8 9 10 11 12 13 14 15 16 17 18 19 20 21
3 1 0 2 1 22
3 1 0 1 2 22 21
2 0 1 1 3 22 18 5
3 0 0 2 3 22 21 15
4 0 1 2 3 22 11 14
1 1 1 2 2 22 14
4 1 1 2 2 22 14
5 0 1 0 3 22 17 13
5 0 0 2 2 22 14
3 0 1 2 1 22
5 0 1 2 1 22
5 0 1 1 2 22 15
5 1 1 1 2 22 20
4 1 0 2 2 22 19
1 0 1 1 1 22
2 1 0 0 1 22
5 0 0 2 1 22
2 0 1 2 1 22
4 0 1 0 1 22
3 0 0 1 1 22
0 0 0 0 0
